problems/csplib-prob030/BalancedAcademicCurriculumProblem-models/compact/O0/minion/model-bacp-7-solution000001.eprime-solution
language ESSENCE' 1.0

letting curr_Function1D be
        [10, 1, 1, 9, 9, 9, 1, 1, 1, 8, 8, 7, 7, 7, 6, 6, 4, 6, 6, 6, 1, 5, 3, 5, 5, 4, 2, 4, 2, 4, 4, 3, 3, 3, 3, 2, 2,
         3, 2, 2, 2, 2, 2, 2, 3, 10, 1, 1, 1, 1;
             int(1..50)]
