problems/csplib-prob030/BalancedAcademicCurriculumProblem-models/noch/O2/minion/model-bacp-7-solution000001.solution
language Essence 1.3

letting curr be
        function(1 --> 10, 2 --> 1, 3 --> 1, 4 --> 9, 5 --> 9, 6 --> 9, 7 --> 1, 8 --> 1, 9 --> 1, 10 --> 8, 11 --> 8,
                 12 --> 7, 13 --> 7, 14 --> 7, 15 --> 6, 16 --> 6, 17 --> 4, 18 --> 6, 19 --> 6, 20 --> 6, 21 --> 1,
                 22 --> 5, 23 --> 3, 24 --> 5, 25 --> 5, 26 --> 4, 27 --> 2, 28 --> 4, 29 --> 2, 30 --> 4, 31 --> 4,
                 32 --> 3, 33 --> 3, 34 --> 3, 35 --> 3, 36 --> 2, 37 --> 2, 38 --> 3, 39 --> 2, 40 --> 2, 41 --> 2,
                 42 --> 2, 43 --> 2, 44 --> 2, 45 --> 3, 46 --> 10, 47 --> 1, 48 --> 1, 49 --> 1, 50 --> 1)
